c read Graph
c width = 259
c time = 408 ms
c width = 23
c time = 652 ms
c width = 21
c time = 725 ms
c width = 20
c time = 1205 ms
c width = 19
c time = 2510 ms
c width = 19
c time = 4284 ms
s td 219 20 272
b 1 1 2 18
b 2 2 3 18 19
b 3 15 16 33 34
b 4 3 18 19 35
b 5 15 33 34 51
b 6 222 239 240 257
b 7 238 254 255 271
b 8 222 240 257 258
b 9 238 254 270 271
b 10 3 4 5 21
b 11 3 5 20 21 36 52
b 12 5 20 21 36 38 52 54
b 13 5 21 36 38 52 54 70
b 14 5 21 38 52 54 70 86
b 15 5 21 23 38 39 54 70 86
b 16 5 21 22 23 39
b 17 5 23 38 39 54 56 70 72 86
b 18 5 23 39 54 56 70 72 86 88
b 19 54 70 71 72 88
b 20 5 23 39 56 70 72 86 88 104
b 21 70 86 87 88 104
b 22 5 23 39 41 56 57 72 86 88 104
b 23 23 39 40 41 57
b 24 5 23 41 56 57 72 75 86 88 92 104 108 122 124 140
b 25 56 57 72 75 88 90 92 104 108 122 124 140
b 26 72 88 90 104 106 108 122 124 140
b 27 72 88 89 90 106
b 28 106 122 123 124 140
b 29 90 106 107 108 124
b 30 88 104 105 106 122
b 31 56 57 72 74 75 90 92 108
b 32 56 72 73 74 90
b 33 74 90 91 92 108
b 34 5 23 41 57 75 86 92 93 104 108 111 122 124 127 140 143 158 159
b 35 5 9 23 27 41 45 57 61 75 77 86 93 104 111 122 127 140 143 158 159
b 36 5 9 23 27 41 45 57 59 61 75 77 93
b 37 41 57 58 59 75
b 38 5 9 23 27 41 43 45 59 61 77
b 39 27 43 44 45 61
b 40 43 59 60 61 77
b 41 5 9 23 25 27 41 43 59
b 42 5 7 9 23 25 41
b 43 7 8 9 25
b 44 5 6 7 23
b 45 7 23 24 25 41
b 46 25 41 42 43 59
b 47 9 25 26 27 43
b 48 59 75 76 77 93
b 49 92 93 108 111 124 126 127 140 143 158 159
b 50 108 124 126 140 142 143 158 159
b 51 124 140 141 142 158
b 52 108 124 125 126 142
b 53 92 93 108 110 111 126 127
b 54 92 108 109 110 126
b 55 38 54 55 56 72
b 56 52 69 70 86
b 57 36 52 53 54 70
b 58 20 36 37 38 54
b 59 3 20 35 36 52
b 60 3 19 20 35 36
b 61 9 27 45 61 77 86 93 104 111 122 127 140 143 154 158 159 172 175 190 191
b 62 9 27 45 61 77 93 111 127 143 154 159 172 175 190 191 193 211 227 243 259
b 63 9 27 45 61 77 93 111 127 143 159 175 177 190 191 193 211 227 243 259
b 64 9 27 45 61 77 93 111 127 143 159 177 193 194 211 227 243 259
b 65 9 27 45 61 77 93 111 127 143 159 177 194 195 211 227 243 259
b 66 9 27 45 61 77 93 111 127 143 159 177 195 211 213 227 231 243 249 259 267
b 67 195 211 213 227 231 243 247 249 259 263 267
b 68 9 27 45 61 77 93 111 127 143 159 161 177 195 213 231 249 267
b 69 143 159 160 161 177
b 70 9 27 45 61 77 93 111 127 143 161 177 179 195 213 231 249 267
b 71 161 177 178 179 195
b 72 9 27 45 61 77 93 111 127 143 145 161 179 195 213 231 249 267
b 73 127 143 144 145 161
b 74 9 27 45 61 77 93 111 127 145 161 179 195 197 213 231 249 267
b 75 9 27 45 61 77 93 111 127 129 145 161 179 197 213 231 249 267
b 76 111 127 128 129 145
b 77 9 27 45 61 77 93 111 129 130 145 148 161 165 179 181 197 213 231 249 267
b 78 9 27 45 61 77 79 93 96 111 114 129 130 148 165 181 197 213 231 249 267
b 79 9 27 45 61 79 96 114 130 132 148 165 181 197 213 231 249 267
b 80 9 27 45 61 79 96 100 102 114 116 118 132 148 165 181 197 213 231 249 267
b 81 100 102 116 118 132 148 165 170 181 183 186 197 201 202 213 231 249 267
b 82 165 170 181 183 186 197 201 202 213 217 231 233 249 267
b 83 165 181 183 197 201 213 215 217 231 233 249
b 84 165 181 183 197 199 201 215 217 233
b 85 199 215 216 217 233
b 86 165 181 182 183 199
b 87 181 197 198 199 215
b 88 183 199 200 201 217
b 89 197 213 214 215 231
b 90 215 231 232 233 249
b 91 170 186 201 202 217 233 249 251 267
b 92 170 186 201 202 217 233 235 251 267
b 93 217 233 234 235 251
b 94 170 186 201 202 217 219 235 251 267
b 95 170 186 202 219 235 237 238 251 267
b 96 170 186 202 219 220 237 238
b 97 170 186 202 204 220 238
b 98 204 220 221 238
b 99 170 186 187 204
b 100 186 202 203 204 220
b 101 219 235 237 238 251 267 269
b 102 251 267 268 269
b 103 219 235 237 238 251 253 269
b 104 237 238 253 269 270
b 105 237 238 253 254 270
b 106 235 251 252 253 269
b 107 219 235 236 237 253
b 108 201 217 218 219 235
b 109 233 249 250 251 267
b 110 100 102 116 118 132 148 150 165 168 170 183 186 201 202
b 111 100 102 116 118 132 134 150 168 170 186
b 112 100 116 117 118 134
b 113 102 118 134 150 152 168 170 186
b 114 152 168 169 170 186
b 115 102 118 134 136 152 170
b 116 102 118 119 136
b 117 118 134 135 136 152
b 118 136 152 153 170
b 119 134 150 151 152 168
b 120 116 132 133 134 150
b 121 132 148 150 165 166 168 183 186 201 202
b 122 150 166 168 183 184 186 201 202
b 123 168 184 185 186 202
b 124 150 166 167 168 184
b 125 132 148 149 150 166
b 126 9 27 45 61 63 79 96 100 102 114 116 118 132
b 127 45 61 62 63 79
b 128 9 27 45 63 64 79 82 96 100 102 114 116 118 132
b 129 63 64 79 82 96 98 100 114 116 132
b 130 82 98 99 100 116
b 131 63 64 79 80 82 96 98 114
b 132 64 80 81 82 98
b 133 80 96 97 98 114
b 134 98 114 115 116 132
b 135 9 13 27 29 45 63 64 82 100 102 118
b 136 9 11 13 27 29 45
b 137 9 10 11 27
b 138 11 27 28 29 45
b 139 11 12 13 29
b 140 13 29 45 47 63 64 82 100 102 118
b 141 29 45 46 47 63
b 142 13 29 47 64 82 84 100 102 118
b 143 13 29 47 64 66 82 84 100 102
b 144 66 82 83 84 100
b 145 13 29 47 48 64 66 82 84 102
b 146 13 29 31 47 48 66 84 102
b 147 13 31 48 66 68 84 102
b 148 13 31 48 50 66 68 84
b 149 13 31 32 48 50 66 68
b 150 32 48 49 50 66
b 151 13 15 31 32 50 68
b 152 13 14 15 31
b 153 15 32 50 51 68
b 154 15 32 33 50 51
b 155 50 66 67 68 84
b 156 68 84 85 102
b 157 13 29 30 31 47
b 158 48 64 65 66 82
b 159 84 100 101 102 118
b 160 114 130 131 132 148
b 161 61 77 79 93 95 96 111 114 129 130
b 162 77 93 94 95 111
b 163 61 77 78 79 95
b 164 95 96 111 112 114 129 130
b 165 96 112 113 114 130
b 166 129 130 145 148 161 163 165 179 181 197
b 167 163 179 180 181 197
b 168 145 161 162 163 179
b 169 129 130 145 147 148 163 165 181
b 170 147 163 164 165 181
b 171 129 145 146 147 163
b 172 179 195 196 197 213
b 173 86 104 122 140 154 156 158 172 175 190 191
b 174 140 156 158 172 174 175 190 191
b 175 140 156 157 158 174
b 176 156 172 173 174 190
b 177 86 104 122 138 140 154 156 172
b 178 122 138 139 140 156
b 179 138 154 155 156 172
b 180 86 104 120 122 138 154
b 181 86 103 104 120
b 182 104 120 121 122 138
b 183 120 137 138 154
b 184 154 172 175 190 191 193 209 211 227 243 259
b 185 175 191 192 193 209
b 186 193 209 210 211 227
b 187 154 172 190 191 209 225 227 243 259
b 188 209 225 226 227 243
b 189 154 172 190 191 207 209 225 243 259
b 190 191 207 208 209 225
b 191 154 172 190 207 222 223 225 243 259
b 192 154 172 190 206 207 222 223
b 193 154 172 188 190 206 222
b 194 188 205 206 222
b 195 172 188 189 190 206
b 196 154 171 172 188
b 197 207 222 223 225 241 243 259
b 198 222 223 241 258 259
b 199 222 223 240 241 258
b 200 225 241 242 243 259
b 201 207 223 224 225 241
b 202 159 175 176 177 193
b 203 195 211 213 227 229 231 243 247 259 263
b 204 213 229 230 231 247
b 205 195 211 212 213 229
b 206 211 227 229 243 245 247 259 263
b 207 229 245 246 247 263
b 208 211 227 228 229 245
b 209 227 243 245 259 261 263
b 210 243 259 260 261
b 211 245 261 262 263
b 212 227 243 244 245 261
b 213 231 247 249 263 265 267
b 214 231 247 248 249 265
b 215 249 265 266 267
b 216 247 263 264 265
b 217 255 271 272
b 218 239 256 257
b 219 16 17 34
1 2
2 4
3 219
3 5
4 60
5 154
6 218
6 8
7 217
7 9
8 199
9 105
10 11
11 59
11 12
12 58
12 13
13 57
13 14
14 56
14 15
15 17
15 16
17 55
17 18
18 20
18 19
20 22
20 21
22 24
22 23
24 34
24 25
25 31
25 26
26 30
26 29
26 27
26 28
31 32
31 33
34 49
34 35
35 61
35 36
36 48
36 37
36 38
38 39
38 40
38 41
41 46
41 47
41 42
42 43
42 44
42 45
49 50
49 53
50 51
50 52
53 54
59 60
61 173
61 62
62 184
62 63
63 202
63 64
64 65
65 66
66 68
66 67
67 213
67 203
68 70
68 69
70 71
70 72
72 74
72 73
74 172
74 75
75 76
75 77
77 78
77 166
78 161
78 79
79 160
79 80
80 81
80 126
81 82
81 110
82 91
82 83
83 90
83 89
83 84
84 85
84 87
84 88
84 86
91 109
91 92
92 93
92 94
94 108
94 95
95 96
95 101
96 97
97 99
97 98
97 100
101 102
101 103
103 104
103 106
103 107
104 105
110 111
110 121
111 112
111 120
111 113
113 114
113 119
113 115
115 116
115 118
115 117
121 125
121 122
122 123
122 124
126 127
126 128
128 135
128 129
129 130
129 134
129 131
131 132
131 133
135 136
135 140
136 137
136 139
136 138
140 141
140 142
142 159
142 143
143 144
143 145
145 158
145 146
146 157
146 147
147 156
147 148
148 155
148 149
149 150
149 151
151 152
151 153
153 154
161 163
161 162
161 164
164 165
166 167
166 168
166 169
169 170
169 171
173 177
173 174
174 176
174 175
177 179
177 178
177 180
180 181
180 183
180 182
184 186
184 185
184 187
187 188
187 189
189 190
189 191
191 192
191 197
192 193
193 196
193 194
193 195
197 198
197 200
197 201
198 199
203 205
203 206
203 204
206 207
206 208
206 209
209 210
209 211
209 212
213 214
213 215
213 216
